0 3820
2401 3699
4802 3614
7203 3553
9604 3498
12005 3452
14406 3412
16807 3379
19208 3342
21609 3318
24010 3304
26411 3288
28812 3272
31213 3249
33614 3235
36015 3207
38416 3203
40817 3177
43218 3173
45619 3158
48020 3150
